Reading model...
...model read.
creating competitive generators file...
...competitive generators recorded.
Loading data...
.. real-time data read.
Compiling instance...
...instance created.
Creating Offer Mitigation (model will solve as dispatch if TRUE)...
...storage offer mitigation file created
Converting model to MPEC...
...converted
NOTE: initial MIP solve with only storage competitive to get feasible solution
Solving...

Welcome to IBM(R) ILOG(R) CPLEX(R) Interactive Optimizer 12.9.0.0
  with Simplex, Mixed Integer & Barrier Optimizers
5725-A06 5725-A29 5724-Y48 5724-Y49 5724-Y54 5724-Y55 5655-Y21
Copyright IBM Corp. 1988, 2019.  All Rights Reserved.

Type 'help' for a list of available commands.
Type 'help' followed by a command name for more
information on commands.

CPLEX> Logfile 'cplex.log' closed.
Logfile 'C:\Users\llavin\Desktop\test826\logs\tmpc4clvvq6.cplex.log' open.
CPLEX> New value for parallel optimization mode: -1
CPLEX> New value for mixed integer optimality gap tolerance: 0.2
CPLEX> New value for integrality tolerance: 1e-12
CPLEX> New value for deterministic time limit in ticks: 65000
CPLEX> Problem 'C:\Users\llavin\Desktop\test826\logs\tmpr06wyzo4.pyomo.lp' read.
Read time = 0.45 sec. (28.91 ticks)
CPLEX> Problem name         : C:\Users\llavin\Desktop\test826\logs\tmpr06wyzo4.pyomo.lp
Objective sense      : Maximize
Variables            :  107803  [Nneg: 1,  Box: 44062,  Free: 8928,
                                 Binary: 54812]
Objective nonzeros   :   17624
Linear constraints   :  246963  [Less: 82886,  Greater: 118460,  Equal: 45617]
  Nonzeros           :  620841
  RHS nonzeros       :  135118

Variables            : Min LB: -5000.000        Max UB: 1000000.       
Objective nonzeros   : Min   : 0.008333333      Max   : 208.3333       
Linear constraints   :
  Nonzeros           : Min   : 0.001000000      Max   : 1000000.       
  RHS nonzeros       : Min   : 0.001000000      Max   : 1000000.       
CPLEX> CPXPARAM_Parallel                                -1
CPXPARAM_DetTimeLimit                            65000
CPXPARAM_MIP_Tolerances_MIPGap                   0.20000000000000001
CPXPARAM_MIP_Tolerances_Integrality              9.9999999999999998e-13
Tried aggregator 3 times.
MIP Presolve eliminated 180825 rows and 40911 columns.
MIP Presolve added 6196 rows and 0 columns.
MIP Presolve modified 50079 coefficients.
Aggregator did 25817 substitutions.
Reduced MIP has 46517 rows, 39593 columns, and 153402 nonzeros.
Reduced MIP has 15589 binaries, 0 generals, 0 SOSs, and 0 indicators.
Presolve time = 0.58 sec. (392.55 ticks)
Probing fixed 857 vars, tightened 8992 bounds.
Probing time = 0.36 sec. (14.80 ticks)
Tried aggregator 2 times.
MIP Presolve eliminated 1908 rows and 1716 columns.
MIP Presolve modified 5567 coefficients.
Aggregator did 48 substitutions.
Reduced MIP has 44561 rows, 37829 columns, and 147716 nonzeros.
Reduced MIP has 14732 binaries, 0 generals, 0 SOSs, and 0 indicators.
Presolve time = 0.20 sec. (226.09 ticks)
Probing fixed 2 vars, tightened 460 bounds.
Probing time = 0.50 sec. (18.80 ticks)
Clique table members: 88121.
MIP emphasis: balance optimality and feasibility.
MIP search method: dynamic search.
Parallel mode: opportunistic, using up to 32 threads.
Root relaxation solution time = 1.08 sec. (1935.42 ticks)

        Nodes                                         Cuts/
   Node  Left     Objective  IInf  Best Integer    Best Bound    ItCnt     Gap

      0     0   9.99960e+07   718                 9.99960e+07    10465         
*     0+    0                            0.0000   9.99960e+07              --- 

Clique cuts applied:  1
Flow cuts applied:  38
Gomory fractional cuts applied:  16

Root node processing (before b&c):
  Real time             =    4.14 sec. (3756.35 ticks)
Parallel b&c, 32 threads:
  Real time             =    0.00 sec. (0.00 ticks)
  Sync time (average)   =    0.00 sec.
  Wait time (average)   =    0.00 sec.
                          ------------
Total (root+branch&cut) =    4.14 sec. (3756.35 ticks)

Solution pool: 1 solution saved.

MIP - Integer optimal, tolerance (0.2/1e-06):  Objective =  4.3619365897e-09
Current MIP best bound =  4.3822296902e-09 (gap = 2.02931e-11, 0.00%)
Solution time =    4.16 sec.  Iterations = 10703  Nodes = 0 (1)
Deterministic time = 3756.66 ticks  (903.70 ticks/sec)

CPLEX> Incumbent solution written to file 'C:\Users\llavin\Desktop\test826\logs\tmpmeb9xv8z.cplex.sol'.
CPLEX> NOTE: no warmstart specified for MIP iteration, default behavior is true
NOTE: resolving with all competitive generators using storage-only solution to warmstart
Solving...

Welcome to IBM(R) ILOG(R) CPLEX(R) Interactive Optimizer 12.9.0.0
  with Simplex, Mixed Integer & Barrier Optimizers
5725-A06 5725-A29 5724-Y48 5724-Y49 5724-Y54 5724-Y55 5655-Y21
Copyright IBM Corp. 1988, 2019.  All Rights Reserved.

Type 'help' for a list of available commands.
Type 'help' followed by a command name for more
information on commands.

CPLEX> Logfile 'cplex.log' closed.
Logfile 'C:\Users\llavin\Desktop\test826\logs\tmpqx6_rm0o.cplex.log' open.
CPLEX> New value for parallel optimization mode: -1
CPLEX> New value for mixed integer optimality gap tolerance: 0.2
CPLEX> New value for integrality tolerance: 1e-12
CPLEX> New value for deterministic time limit in ticks: 65000
CPLEX> Problem 'C:\Users\llavin\Desktop\test826\logs\tmpuycbcoow.pyomo.lp' read.
Read time = 0.47 sec. (28.96 ticks)
CPLEX> MIP start file 'C:\Users\llavin\Desktop\test826\logs\tmp1zpehe2m.cplex.mst' read.
CPLEX> Problem name         : C:\Users\llavin\Desktop\test826\logs\tmpuycbcoow.pyomo.lp
Objective sense      : Maximize
Variables            :  109243  [Nneg: 1,  Box: 45502,  Free: 8928,
                                 Binary: 54812]
Objective nonzeros   :   19017
Linear constraints   :  246963  [Less: 82886,  Greater: 118460,  Equal: 45617]
  Nonzeros           :  620841
  RHS nonzeros       :  135118

Variables            : Min LB: -5000.000        Max UB: 1000000.       
Objective nonzeros   : Min   : 0.008333333      Max   : 208.3333       
Linear constraints   :
  Nonzeros           : Min   : 0.001000000      Max   : 1000000.       
  RHS nonzeros       : Min   : 0.001000000      Max   : 1000000.       
CPLEX> CPXPARAM_Parallel                                -1
CPXPARAM_DetTimeLimit                            65000
CPXPARAM_MIP_Tolerances_MIPGap                   0.20000000000000001
CPXPARAM_MIP_Tolerances_Integrality              9.9999999999999998e-13
Warning:  No solution found from 1 MIP starts.
Retaining values of one MIP start for possible repair.
Tried aggregator 3 times.
MIP Presolve eliminated 180825 rows and 42351 columns.
MIP Presolve added 6196 rows and 0 columns.
MIP Presolve modified 50079 coefficients.
Aggregator did 25817 substitutions.
Reduced MIP has 46517 rows, 39593 columns, and 153402 nonzeros.
Reduced MIP has 15589 binaries, 0 generals, 0 SOSs, and 0 indicators.
Presolve time = 0.56 sec. (393.31 ticks)
Probing fixed 857 vars, tightened 8992 bounds.
Probing time = 0.38 sec. (14.80 ticks)
Tried aggregator 2 times.
MIP Presolve eliminated 1908 rows and 1716 columns.
MIP Presolve modified 5567 coefficients.
Aggregator did 48 substitutions.
Reduced MIP has 44561 rows, 37829 columns, and 147716 nonzeros.
Reduced MIP has 14732 binaries, 0 generals, 0 SOSs, and 0 indicators.
Presolve time = 0.22 sec. (226.11 ticks)
Probing fixed 2 vars, tightened 460 bounds.
Probing time = 0.55 sec. (18.80 ticks)
Clique table members: 88121.
MIP emphasis: balance optimality and feasibility.
MIP search method: dynamic search.
Parallel mode: opportunistic, using up to 32 threads.
Root relaxation solution time = 1.05 sec. (1942.67 ticks)

        Nodes                                         Cuts/
   Node  Left     Objective  IInf  Best Integer    Best Bound    ItCnt     Gap

      0     0   9.99989e+07   766                 9.99989e+07    10705         
      0     0   5.00048e+07    89                   Cuts: 109    10952         
      0     0   5.00048e+07    94                    Cuts: 21    10969         
      0     0   5.00048e+07    79                 Flowcuts: 7    10975         
Repair heuristic found nothing.
      0     2   5.00048e+07    79                     Cuts: 4    10975         
Elapsed time = 15.36 sec. (9025.67 ticks, tree = 0.02 MB, solutions = 0)
     96   113     5481.6574    51                 3.66724e+07    13192         
    407   132     5426.4854    45                 3.66724e+07    13344         
*   470   105      integral     0     2818.3447   3.66724e+07    13153     --- 
*   481   106      integral     0     2822.9138   3.66724e+07    13157     --- 
    820   110    -6511.9758    21     2822.9138   3.66724e+07    13903     --- 
   1182   620     5433.5907    22     2829.7127   3.66724e+07    21838     --- 
   1621   639     5152.4776     9     2829.7127   3.66724e+07    22003     --- 
   2221  1431     5144.6665    11     2829.7127   3.66724e+07    29606     --- 
   2743  1049     4450.4237    17     2829.7127   3.66724e+07    25876     --- 
   4339  2658     3538.4307    56     2829.7127   3.57175e+07    43778     --- 
Elapsed time = 32.45 sec. (11715.70 ticks, tree = 30.51 MB, solutions = 9)
   5457  3952     5425.1441    22     2829.7127   3.57175e+07    64999     --- 
   5829  3853     4259.3395     3     2829.7127   3.57175e+07    63637     --- 
   5830  4666   5.00048e+07    89     2829.7127   2.87796e+07    91483     --- 
   6111    52     5455.7172    37     2829.7127   2.87796e+07    93834     --- 
   6565    95     4451.9203    19     2829.7127   2.87796e+07    94990     --- 
   7030   107     4253.3075    56     2829.7127   2.87796e+07    95459     --- 
   7562   210     5409.5628    75     2829.7127   2.87796e+07    97819     --- 
   8102  1507     5462.5460    58     2829.7127   2.87796e+07   111437     --- 
   8927  1017     5477.7353    72     2829.7127   2.87796e+07   107564     --- 
   9593  1704     5093.9220    51     2829.7127   2.87796e+07   116545     --- 
Elapsed time = 116.95 sec. (34158.82 ticks, tree = 128.78 MB, solutions = 9)
  10466  1417     5459.0172    62     2829.7127   2.87796e+07   111097     --- 
  11392  2054     5356.9201    69     2829.7127   2.87796e+07   121433     --- 
  12403  3851        cutoff           2829.7127   2.87796e+07   155483     --- 
  13485  4137    infeasible           2829.7127   2.87796e+07   158014     --- 
  14622  5840     4519.0442    84     2829.7127     5493.1368   182016   94.12%
  15799  6048     5460.3043    62     2829.7127     5493.1368   184611   94.12%
  17003  5916     4969.6672    43     2829.7127     5493.1368   182909   94.12%
  18183  5132     4795.5376    62     2829.7127     5493.1368   172852   94.12%
  19272  6353     5355.7730    44     2829.7127     5482.8176   188588   93.76%
  20377  8622     5471.6165    69     2829.7127     5479.8801   233042   93.66%
Elapsed time = 179.31 sec. (43703.42 ticks, tree = 245.65 MB, solutions = 9)
  21610  7266     5467.9381    74     2829.7127     5479.8801   206452   93.66%
  22738  5975     5358.9671    44     2829.7127     5479.8796   184582   93.65%
  23937  7168     5450.1126    62     2829.7127     5478.3831   202005   93.60%
  25243  8529     5422.7643    34     2829.7127     5478.3831   230627   93.60%
  26393 12508     5459.1353    80     2829.7127     5478.3831   297393   93.60%
  27677 11423     5450.1559    77     2829.7127     5478.3831   280568   93.60%
  28895 13693     5393.3412    61     2829.7127     5478.3831   321440   93.60%
  30169 15395     4711.7120    68     2829.7127     5478.3831   345502   93.60%
  31524 17035     5304.4855    42     2829.7127     5478.0570   371868   93.59%
  Signal handler called from  C:\Users\llavin\AppData\Local\Continuum\anaconda3\lib\subprocess.py _wait 1230
  Waiting...
